Using license file /home/benedond/gurobi.lic
Using gurobi.env file
Set parameter Threads to value 1
Academic license - for non-commercial use only
Changed value of parameter TimeLimit to 300.0
   Prev: inf  Min: 0.0  Max: inf  Default: inf
Gurobi Optimizer version 9.0.1 build v9.0.1rc0 (linux64)
Optimize a model with 880 rows, 820 columns and 3258 nonzeros
Model fingerprint: 0x07bb7c73
Variable types: 20 continuous, 800 integer (800 binary)
Coefficient statistics:
  Matrix range     [1e+00, 4e+02]
  Objective range  [4e+01, 4e+02]
  Bounds range     [1e+00, 1e+00]
  RHS range        [1e+00, 1e+03]
Presolve removed 527 rows and 507 columns
Presolve time: 0.18s
Presolved: 353 rows, 313 columns, 2412 nonzeros
Variable types: 20 continuous, 293 integer (293 binary)

Root relaxation: objective 4.011000e+03, 169 iterations, 0.00 seconds

    Nodes    |    Current Node    |     Objective Bounds      |     Work
 Expl Unexpl |  Obj  Depth IntInf | Incumbent    BestBd   Gap | It/Node Time

     0     0 4011.00000    0   16          - 4011.00000      -     -    0s
H    0     0                    3572.0000000 4011.00000  12.3%     -    0s
     0     0 4011.00000    0   34 3572.00000 4011.00000  12.3%     -    0s
     0     0 4011.00000    0   31 3572.00000 4011.00000  12.3%     -    0s
     0     0 4011.00000    0   24 3572.00000 4011.00000  12.3%     -    0s
H    0     0                    3654.0000000 4011.00000  9.77%     -    0s
     0     0 4011.00000    0   22 3654.00000 4011.00000  9.77%     -    0s
H    0     0                    3712.0000000 4011.00000  8.05%     -    0s
     0     0 4011.00000    0   21 3712.00000 4011.00000  8.05%     -    0s
     0     0 4011.00000    0   18 3712.00000 4011.00000  8.05%     -    0s
     0     0 4011.00000    0   25 3712.00000 4011.00000  8.05%     -    0s
     0     0 4011.00000    0   23 3712.00000 4011.00000  8.05%     -    0s
     0     0 4011.00000    0   22 3712.00000 4011.00000  8.05%     -    0s
H    0     0                    3771.0000000 4011.00000  6.36%     -    0s
     0     2 4011.00000    0   21 3771.00000 4011.00000  6.36%     -    0s
H   82    42                    3831.0000000 4011.00000  4.70%  17.6    0s
H  993   352                    3848.0000000 4011.00000  4.24%  11.5    0s
H 3026   485                    3878.0000000 4011.00000  3.43%  14.7    3s
H 3406   383                    3923.0000000 4011.00000  2.24%  14.5    3s
H 3516   367                    3924.0000000 4011.00000  2.22%  14.7    3s
  4801   439 4001.36467   46   31 3924.00000 4011.00000  2.22%  15.6    5s
  8411   310 4011.00000   47   24 3924.00000 4011.00000  2.22%  19.2   10s
 14660   664 infeasible   54      3924.00000 4011.00000  2.22%  20.6   15s
 18359   625 infeasible   58      3924.00000 4009.25385  2.17%  22.3   20s

Cutting planes:
  Gomory: 1
  Cover: 3
  Implied bound: 2
  Projected implied bound: 5
  MIR: 6
  Flow cover: 21
  GUB cover: 1
  Inf proof: 2
  Relax-and-lift: 15

Explored 19498 nodes (429579 simplex iterations) in 20.79 seconds
Thread count was 1 (of 4 available processors)

Solution count 9: 3924 3923 3878 ... 3572

Optimal solution found (tolerance 1.00e-04)
Best objective 3.924000000000e+03, best bound 3.924000000000e+03, gap 0.0000%
